(declare-fun i54.i_2_29 () (_ BitVec 64))
(declare-fun dst_reg_2_3 () (_ BitVec 64))
(declare-fun i19_2_28 () (_ BitVec 1))
(declare-fun i_2_26 () (_ BitVec 64))
(declare-fun src_reg1.sroa.11.0.copyload_2_23 () (_ BitVec 64))
(declare-fun i20.i_2_25 () (_ BitVec 64))
(declare-fun dst_reg_2_4 () (_ BitVec 64))
(declare-fun src_reg1.sroa.21.0.copyload_2_24 () (_ BitVec 64))
(declare-fun src_reg_2_17 () (_ BitVec 64))
(declare-fun src_reg_2_14 () (_ BitVec 64))
(declare-fun src_reg1.sroa.3.0.copyload_2_22 () (_ BitVec 64))
(declare-fun src_reg_2_13 () (_ BitVec 64))
(declare-fun src_reg_2_19 () (_ BitVec 32))
(declare-fun src_reg_2_18 () (_ BitVec 64))
(declare-fun src_reg_2_16 () (_ BitVec 64))
(declare-fun src_reg_2_15 () (_ BitVec 64))
(declare-fun src_reg_2_12 () (_ BitVec 32))
(declare-fun src_reg_2_11 () (_ BitVec 32))
(declare-fun src_reg_2_10 () (_ BitVec 32))
(declare-fun dst_reg_2_9 () (_ BitVec 32))
(declare-fun dst_reg_2_8 () (_ BitVec 64))
(declare-fun dst_reg_2_7 () (_ BitVec 64))
(declare-fun dst_reg_2_6 () (_ BitVec 64))
(declare-fun dst_reg_2_5 () (_ BitVec 64))
(declare-fun dst_reg_2_2 () (_ BitVec 32))
(declare-fun dst_reg_2_1 () (_ BitVec 32))
(declare-fun dst_reg_2_0 () (_ BitVec 32))
(declare-fun or.i_2_30 () (_ BitVec 64))
(declare-fun i29.i.i_2_101 () (_ BitVec 64))
(declare-fun dst_reg_2_72 () (_ BitVec 64))
(declare-fun cmp21.i.i_2_100 () (_ BitVec 1))
(declare-fun i28.i.i_2_98 () (_ BitVec 64))
(declare-fun dst_reg_2_73 () (_ BitVec 64))
(declare-fun cmp.i246.i_2_87 () (_ BitVec 1))
(declare-fun cmp1.i248.i_2_90 () (_ BitVec 1))
(declare-fun or37.i172.i_2_62 () (_ BitVec 64))
(declare-fun cond46.i174.i_2_64 () (_ BitVec 64))
(declare-fun or187.i_2_41 () (_ BitVec 64))
(declare-fun cmp41.i173.i_2_63 () (_ BitVec 1))
(declare-fun or.i144.i_2_34 () (_ BitVec 64))
(declare-fun cond31.i169.i_2_61 () (_ BitVec 64))
(declare-fun cond182.i_2_40 () (_ BitVec 64))
(declare-fun cmp26.i168.i_2_60 () (_ BitVec 1))
(declare-fun or10.i163.i_2_57 () (_ BitVec 64))
(declare-fun cond19.i165.i_2_59 () (_ BitVec 64))
(declare-fun or187.sink.i_2_49 () (_ BitVec 64))
(declare-fun cmp14.i164.i_2_58 () (_ BitVec 1))
(declare-fun and9.i162.i_2_56 () (_ BitVec 64))
(declare-fun and.i147.i_2_37 () (_ BitVec 64))
(declare-fun or.i157.i_2_52 () (_ BitVec 64))
(declare-fun cond.i159.i_2_54 () (_ BitVec 64))
(declare-fun cond182.sink.i_2_47 () (_ BitVec 64))
(declare-fun cmp2.i158.i_2_53 () (_ BitVec 1))
(declare-fun and.i156.i_2_51 () (_ BitVec 64))
(declare-fun .not.i_2_45 () (_ BitVec 1))
(declare-fun i61.i_2_43 () (_ BitVec 64))
(declare-fun src_reg1.sroa.15.0.copyload_2_33 () (_ BitVec 64))
(declare-fun i60.i_2_42 () (_ BitVec 64))
(declare-fun i58.i_2_38 () (_ BitVec 64))
(declare-fun cmp177.i_2_39 () (_ BitVec 1))
(declare-fun neg.i146.i_2_36 () (_ BitVec 64))
(declare-fun dst_reg_2_74 () (_ BitVec 32))
(declare-fun dst_reg_2_71 () (_ BitVec 64))
(declare-fun dst_reg_2_70 () (_ BitVec 64))
(declare-fun dst_reg_2_69 () (_ BitVec 64))
(declare-fun dst_reg_2_68 () (_ BitVec 64))
(declare-fun dst_reg_2_67 () (_ BitVec 32))
(declare-fun dst_reg_2_66 () (_ BitVec 32))
(declare-fun dst_reg_2_65 () (_ BitVec 32))
(declare-fun src_reg_2_84 () (_ BitVec 32))
(declare-fun src_reg_2_83 () (_ BitVec 64))
(declare-fun src_reg_2_82 () (_ BitVec 64))
(declare-fun src_reg_2_81 () (_ BitVec 64))
(declare-fun src_reg_2_80 () (_ BitVec 64))
(declare-fun src_reg_2_79 () (_ BitVec 64))
(declare-fun src_reg_2_78 () (_ BitVec 64))
(declare-fun src_reg_2_77 () (_ BitVec 32))
(declare-fun src_reg_2_76 () (_ BitVec 32))
(declare-fun src_reg_2_75 () (_ BitVec 32))
(declare-fun i.i245.i_2_85 () (_ BitVec 64))
(declare-fun i27.i.i_2_95 () (_ BitVec 64))
(declare-fun cond17.i.i_2_97 () (_ BitVec 64))
(declare-fun i26.i.i_2_94 () (_ BitVec 64))
(declare-fun cmp12.i.i_2_96 () (_ BitVec 1))
(declare-fun i25.i.i_2_91 () (_ BitVec 64))
(declare-fun cond.i250.i_2_93 () (_ BitVec 64))
(declare-fun cmp4.i.i_2_92 () (_ BitVec 1))
(declare-fun cond36.i.i_2_103 () (_ BitVec 64))
(declare-fun i24.i.i_2_88 () (_ BitVec 64))
(declare-fun cmp31.i.i_2_102 () (_ BitVec 1))
(declare-fun cmp40.i.i_2_105 () (_ BitVec 1))
(declare-fun cond53.i.i_2_107 () (_ BitVec 64))
(declare-fun cmp48.i.i_2_106 () (_ BitVec 1))
(declare-fun src_reg_2_219 () (_ BitVec 32))
(declare-fun src_reg_2_127 () (_ BitVec 32))
(declare-fun src_reg_2_218 () (_ BitVec 64))
(declare-fun src_reg_2_126 () (_ BitVec 64))
(declare-fun src_reg_2_217 () (_ BitVec 64))
(declare-fun src_reg_2_125 () (_ BitVec 64))
(declare-fun src_reg_2_216 () (_ BitVec 64))
(declare-fun src_reg_2_124 () (_ BitVec 64))
(declare-fun src_reg_2_215 () (_ BitVec 64))
(declare-fun src_reg_2_123 () (_ BitVec 64))
(declare-fun src_reg_2_214 () (_ BitVec 64))
(declare-fun src_reg_2_122 () (_ BitVec 64))
(declare-fun src_reg_2_213 () (_ BitVec 64))
(declare-fun src_reg_2_121 () (_ BitVec 64))
(declare-fun src_reg_2_212 () (_ BitVec 32))
(declare-fun src_reg_2_120 () (_ BitVec 32))
(declare-fun src_reg_2_211 () (_ BitVec 32))
(declare-fun src_reg_2_119 () (_ BitVec 32))
(declare-fun src_reg_2_210 () (_ BitVec 32))
(declare-fun src_reg_2_118 () (_ BitVec 32))
(declare-fun dst_reg_2_209 () (_ BitVec 32))
(declare-fun dst_reg_2_117 () (_ BitVec 32))
(declare-fun dst_reg_2_208 () (_ BitVec 64))
(declare-fun dst_reg_2_116 () (_ BitVec 64))
(declare-fun dst_reg_2_207 () (_ BitVec 64))
(declare-fun dst_reg_2_115 () (_ BitVec 64))
(declare-fun dst_reg_2_206 () (_ BitVec 64))
(declare-fun dst_reg_2_114 () (_ BitVec 64))
(declare-fun dst_reg_2_205 () (_ BitVec 64))
(declare-fun dst_reg_2_113 () (_ BitVec 64))
(declare-fun dst_reg_2_204 () (_ BitVec 64))
(declare-fun and.i1.i260.i_2_195 () (_ BitVec 64))
(declare-fun dst_reg_2_203 () (_ BitVec 64))
(declare-fun and4.i.i.i_2_198 () (_ BitVec 64))
(declare-fun dst_reg_2_202 () (_ BitVec 32))
(declare-fun dst_reg_2_110 () (_ BitVec 32))
(declare-fun dst_reg_2_201 () (_ BitVec 32))
(declare-fun dst_reg_2_109 () (_ BitVec 32))
(declare-fun dst_reg_2_200 () (_ BitVec 32))
(declare-fun dst_reg_2_108 () (_ BitVec 32))
(declare-fun retval.0.i.i.i.i_2_179 () (_ BitVec 32))
(declare-fun cmp.i.i.i.i_2_132 () (_ BitVec 1))
(declare-fun phi.bo_2_178 () (_ BitVec 32))
(declare-fun neg.i.i.i_2_197 () (_ BitVec 64))
(declare-fun or.i.i259.i_2_194 () (_ BitVec 64))
(declare-fun i11.i.i_2_193 () (_ BitVec 64))
(declare-fun retval.sroa.3.0.i.i.i_2_191 () (_ BitVec 64))
(declare-fun i9.i.i_2_192 () (_ BitVec 64))
(declare-fun retval.sroa.0.0.i.i.i_2_189 () (_ BitVec 64))
(declare-fun sub.i.i.i_2_186 () (_ BitVec 64))
(declare-fun cmp.i.i.i_2_181 () (_ BitVec 1))
(declare-fun and.i.i256.i_2_187 () (_ BitVec 64))
(declare-fun i.i253.i_2_128 () (_ BitVec 64))
(declare-fun notmask.i.i.i_2_184 () (_ BitVec 64))
(declare-fun sh_prom.i.i.i_2_182 () (_ BitVec 64))
(declare-fun dst_reg_2_112 () (_ BitVec 64))
(declare-fun dst_reg_2_111 () (_ BitVec 64))
(declare-fun xor.i.i.i_2_130 () (_ BitVec 64))
(declare-fun i5.i255.i_2_129 () (_ BitVec 64))
(declare-fun conv.i.i.i.i_2_176 () (_ BitVec 32))
(declare-fun i.i.i.i.i.i.neg_2_175 () (_ BitVec 32))
(declare-fun num.4.i.i.i.i.i_2_172 () (_ BitVec 32))
(declare-fun word.addr.4.lobit.i.i.i.i.i.neg_2_174 () (_ BitVec 64))
(declare-fun word.addr.4.i.i.i.i.i_2_171 () (_ BitVec 64))
(declare-fun num.3.i.i.i.i.i_2_164 () (_ BitVec 32))
(declare-fun sub22.i.i.i.i.i_2_168 () (_ BitVec 32))
(declare-fun tobool20.not.i.i.i.i.i_2_166 () (_ BitVec 1))
(declare-fun word.addr.3.i.i.i.i.i_2_163 () (_ BitVec 64))
(declare-fun shl23.i.i.i.i.i_2_170 () (_ BitVec 64))
(declare-fun num.2.i.i.i.i.i_2_156 () (_ BitVec 32))
(declare-fun sub16.i.i.i.i.i_2_160 () (_ BitVec 32))
(declare-fun tobool14.not.i.i.i.i.i_2_158 () (_ BitVec 1))
(declare-fun word.addr.2.i.i.i.i.i_2_155 () (_ BitVec 64))
(declare-fun shl17.i.i.i.i.i_2_162 () (_ BitVec 64))
(declare-fun num.1.i.i.i.i.i_2_148 () (_ BitVec 32))
(declare-fun sub10.i.i.i.i.i_2_152 () (_ BitVec 32))
(declare-fun tobool8.not.i.i.i.i.i_2_150 () (_ BitVec 1))
(declare-fun word.addr.1.i.i.i.i.i_2_147 () (_ BitVec 64))
(declare-fun shl11.i.i.i.i.i_2_154 () (_ BitVec 64))
(declare-fun spec.select17.i.i.i.i.i_2_140 () (_ BitVec 32))
(declare-fun sub4.i.i.i.i.i_2_144 () (_ BitVec 32))
(declare-fun tobool2.not.i.i.i.i.i_2_142 () (_ BitVec 1))
(declare-fun spec.select.i.i.i.i.i_2_137 () (_ BitVec 64))
(declare-fun shl5.i.i.i.i.i_2_146 () (_ BitVec 64))
(declare-fun tobool.not.i.i.i.i.i_2_134 () (_ BitVec 1))
(declare-fun shl.i.i.i.i.i_2_136 () (_ BitVec 64))
(assert (let ((a!1 (and (= cmp.i246.i_2_87 #b0) (or (= i19_2_28 #b0) (= i19_2_28 #b1))))
      (a!16 (and (= dst_reg_2_70 i.i245.i_2_85)
                 (ite (bvsgt i.i245.i_2_85 #xffffffffffffffff)
                      (= cmp.i246.i_2_87 #b1)
                      (= cmp.i246.i_2_87 #b0))
                 (=> (= i19_2_28 #b1)
                     (and (= #x00000001 src_reg_2_75)
                          (= src_reg_2_11 src_reg_2_76)
                          (= src_reg_2_12 src_reg_2_77)
                          (= src_reg_2_13 src_reg_2_78)
                          (= src_reg_2_14 src_reg_2_79)
                          (= src_reg_2_15 src_reg_2_80)
                          (= src_reg_2_16 src_reg_2_81)
                          (= src_reg_2_17 src_reg_2_82)
                          (= src_reg_2_18 src_reg_2_83)
                          (= src_reg_2_19 src_reg_2_84)
                          (= #x00000001 dst_reg_2_65)
                          (= dst_reg_2_1 dst_reg_2_66)
                          (= #x00000000 dst_reg_2_67)
                          (= or.i_2_30 dst_reg_2_68)
                          (= #x0000000000000000 dst_reg_2_69)
                          (= or.i_2_30 dst_reg_2_70)
                          (= or.i_2_30 dst_reg_2_71)
                          (= or.i_2_30 dst_reg_2_72)
                          (= or.i_2_30 dst_reg_2_73)
                          (= dst_reg_2_9 dst_reg_2_74)))
                 (=> (= i19_2_28 #b0)
                     (and (= #x00000001 src_reg_2_75)
                          (= src_reg_2_11 src_reg_2_76)
                          (= src_reg_2_12 src_reg_2_77)
                          (= src_reg_2_13 src_reg_2_78)
                          (= src_reg_2_14 src_reg_2_79)
                          (= src_reg_2_15 src_reg_2_80)
                          (= src_reg_2_16 src_reg_2_81)
                          (= src_reg_2_17 src_reg_2_82)
                          (= src_reg_2_18 src_reg_2_83)
                          (= src_reg_2_19 src_reg_2_84)
                          (= #x00000001 dst_reg_2_65)
                          (= dst_reg_2_1 dst_reg_2_66)
                          (= dst_reg_2_2 dst_reg_2_67)
                          (= or.i144.i_2_34 dst_reg_2_68)
                          (= and.i147.i_2_37 dst_reg_2_69)
                          (= cond.i159.i_2_54 dst_reg_2_70)
                          (= cond19.i165.i_2_59 dst_reg_2_71)
                          (= cond31.i169.i_2_61 dst_reg_2_72)
                          (= cond46.i174.i_2_64 dst_reg_2_73)
                          (= dst_reg_2_9 dst_reg_2_74)))))
      (a!17 (=> (= i19_2_28 #b0)
                (and (= src_reg_2_15 src_reg1.sroa.15.0.copyload_2_33)
                     (= or.i144.i_2_34
                        (bvor i54.i_2_29 src_reg1.sroa.3.0.copyload_2_22))
                     (= neg.i146.i_2_36
                        (bvxor or.i144.i_2_34 #xffffffffffffffff))
                     (= and.i147.i_2_37 (bvand i_2_26 neg.i146.i_2_36))
                     (= dst_reg_2_7 i58.i_2_38)
                     (ite (bvugt i58.i_2_38 src_reg1.sroa.21.0.copyload_2_24)
                          (= cmp177.i_2_39 #b1)
                          (= cmp177.i_2_39 #b0))
                     (ite (= cmp177.i_2_39 #b1)
                          (= cond182.i_2_40 i58.i_2_38)
                          (= cond182.i_2_40 src_reg1.sroa.21.0.copyload_2_24))
                     (= or187.i_2_41 (bvor or.i144.i_2_34 i_2_26))
                     (= dst_reg_2_5 i60.i_2_42)
                     (= i61.i_2_43
                        (bvor i60.i_2_42 src_reg1.sroa.15.0.copyload_2_33))
                     (ite (bvsgt i61.i_2_43 #xffffffffffffffff)
                          (= .not.i_2_45 #b1)
                          (= .not.i_2_45 #b0))
                     (ite (= .not.i_2_45 #b1)
                          (= cond182.sink.i_2_47 cond182.i_2_40)
                          (= cond182.sink.i_2_47 #x8000000000000000))
                     (ite (= .not.i_2_45 #b1)
                          (= or187.sink.i_2_49 or187.i_2_41)
                          (= or187.sink.i_2_49 #x7fffffffffffffff))
                     (= and.i156.i_2_51
                        (bvand and.i147.i_2_37 #x8000000000000000))
                     (= or.i157.i_2_52 (bvor and.i156.i_2_51 or.i144.i_2_34))
                     (ite (bvsgt cond182.sink.i_2_47 or.i157.i_2_52)
                          (= cmp2.i158.i_2_53 #b1)
                          (= cmp2.i158.i_2_53 #b0))
                     (ite (= cmp2.i158.i_2_53 #b1)
                          (= cond.i159.i_2_54 cond182.sink.i_2_47)
                          (= cond.i159.i_2_54 or.i157.i_2_52))
                     (= and9.i162.i_2_56
                        (bvand and.i147.i_2_37 #x7fffffffffffffff))
                     (= or10.i163.i_2_57 (bvor and9.i162.i_2_56 or.i144.i_2_34))
                     (ite (bvslt or187.sink.i_2_49 or10.i163.i_2_57)
                          (= cmp14.i164.i_2_58 #b1)
                          (= cmp14.i164.i_2_58 #b0))
                     (ite (= cmp14.i164.i_2_58 #b1)
                          (= cond19.i165.i_2_59 or187.sink.i_2_49)
                          (= cond19.i165.i_2_59 or10.i163.i_2_57))
                     (ite (bvugt cond182.i_2_40 or.i144.i_2_34)
                          (= cmp26.i168.i_2_60 #b1)
                          (= cmp26.i168.i_2_60 #b0))
                     (ite (= cmp26.i168.i_2_60 #b1)
                          (= cond31.i169.i_2_61 cond182.i_2_40)
                          (= cond31.i169.i_2_61 or.i144.i_2_34))
                     (= or37.i172.i_2_62 (bvor or.i144.i_2_34 i_2_26))
                     (ite (bvult or187.i_2_41 or37.i172.i_2_62)
                          (= cmp41.i173.i_2_63 #b1)
                          (= cmp41.i173.i_2_63 #b0))
                     (ite (= cmp41.i173.i_2_63 #b1)
                          (= cond46.i174.i_2_64 or187.i_2_41)
                          (= cond46.i174.i_2_64 or37.i172.i_2_62)))))
      (a!19 (=> (= i19_2_28 #b1)
                (and (= or.i_2_30
                        (bvor i54.i_2_29 src_reg1.sroa.3.0.copyload_2_22))))))
(let ((a!2 (and (= cmp40.i.i_2_105 #b1)
                (and (= cmp21.i.i_2_100 #b0) (and (= cmp1.i248.i_2_90 #b0) a!1))))
      (a!3 (and (= cmp40.i.i_2_105 #b0)
                (and (= cmp21.i.i_2_100 #b0) (and (= cmp1.i248.i_2_90 #b0) a!1))))
      (a!4 (or (and (= cmp1.i248.i_2_90 #b1) a!1)
               (and (= cmp.i246.i_2_87 #b1)
                    (or (= i19_2_28 #b0) (= i19_2_28 #b1)))))
      (a!7 (=> (and (= cmp21.i.i_2_100 #b1) (and (= cmp1.i248.i_2_90 #b0) a!1))
               (and (= src_reg_2_75 src_reg_2_118)
                    (= src_reg_2_76 src_reg_2_119)
                    (= src_reg_2_77 src_reg_2_120)
                    (= src_reg_2_78 src_reg_2_121)
                    (= src_reg_2_79 src_reg_2_122)
                    (= src_reg_2_80 src_reg_2_123)
                    (= src_reg_2_81 src_reg_2_124)
                    (= src_reg_2_82 src_reg_2_125)
                    (= src_reg_2_83 src_reg_2_126)
                    (= src_reg_2_84 src_reg_2_127)
                    (= dst_reg_2_65 dst_reg_2_108)
                    (= dst_reg_2_66 dst_reg_2_109)
                    (= dst_reg_2_67 dst_reg_2_110)
                    (= dst_reg_2_68 dst_reg_2_111)
                    (= dst_reg_2_69 dst_reg_2_112)
                    (= i29.i.i_2_101 dst_reg_2_113)
                    (= cond36.i.i_2_103 dst_reg_2_114)
                    (= dst_reg_2_72 dst_reg_2_115)
                    (= cond36.i.i_2_103 dst_reg_2_116)
                    (= dst_reg_2_74 dst_reg_2_117))))
      (a!12 (=> (and (= cmp21.i.i_2_100 #b0) (and (= cmp1.i248.i_2_90 #b0) a!1))
                (and (ite (bvslt i29.i.i_2_101 #x0000000000000000)
                          (= cmp40.i.i_2_105 #b1)
                          (= cmp40.i.i_2_105 #b0)))))
      (a!13 (=> a!1
                (and (= dst_reg_2_71 i24.i.i_2_88)
                     (ite (bvslt i24.i.i_2_88 #x0000000000000000)
                          (= cmp1.i248.i_2_90 #b1)
                          (= cmp1.i248.i_2_90 #b0)))))
      (a!14 (=> (and (= cmp21.i.i_2_100 #b1) (and (= cmp1.i248.i_2_90 #b0) a!1))
                (and (ite (bvult i24.i.i_2_88 i28.i.i_2_98)
                          (= cmp31.i.i_2_102 #b1)
                          (= cmp31.i.i_2_102 #b0))
                     (ite (= cmp31.i.i_2_102 #b1)
                          (= cond36.i.i_2_103 i24.i.i_2_88)
                          (= cond36.i.i_2_103 i28.i.i_2_98)))))
      (a!18 (=> (and (= cmp1.i248.i_2_90 #b0) a!1)
                (and (= dst_reg_2_73 i28.i.i_2_98)
                     (ite (bvsgt i28.i.i_2_98 #xffffffffffffffff)
                          (= cmp21.i.i_2_100 #b1)
                          (= cmp21.i.i_2_100 #b0))
                     (= dst_reg_2_72 i29.i.i_2_101)))))
(let ((a!5 (or a!2
               a!3
               (and (= cmp21.i.i_2_100 #b1) (and (= cmp1.i248.i_2_90 #b0) a!1))
               a!4))
      (a!8 (and (= dst_reg_2_115 i.i253.i_2_128)
                (= dst_reg_2_116 i5.i255.i_2_129)
                (= xor.i.i.i_2_130 (bvxor i5.i255.i_2_129 i.i253.i_2_128))
                (ite (= xor.i.i.i_2_130 #x0000000000000000)
                     (= cmp.i.i.i.i_2_132 #b1)
                     (= cmp.i.i.i.i_2_132 #b0))
                (=> a!4
                    (and (= src_reg_2_75 src_reg_2_118)
                         (= src_reg_2_76 src_reg_2_119)
                         (= src_reg_2_77 src_reg_2_120)
                         (= src_reg_2_78 src_reg_2_121)
                         (= src_reg_2_79 src_reg_2_122)
                         (= src_reg_2_80 src_reg_2_123)
                         (= src_reg_2_81 src_reg_2_124)
                         (= src_reg_2_82 src_reg_2_125)
                         (= src_reg_2_83 src_reg_2_126)
                         (= src_reg_2_84 src_reg_2_127)
                         (= dst_reg_2_65 dst_reg_2_108)
                         (= dst_reg_2_66 dst_reg_2_109)
                         (= dst_reg_2_67 dst_reg_2_110)
                         (= dst_reg_2_68 dst_reg_2_111)
                         (= dst_reg_2_69 dst_reg_2_112)
                         (= cond.i250.i_2_93 dst_reg_2_113)
                         (= cond17.i.i_2_97 dst_reg_2_114)
                         (= cond.i250.i_2_93 dst_reg_2_115)
                         (= cond17.i.i_2_97 dst_reg_2_116)
                         (= dst_reg_2_74 dst_reg_2_117)))
                a!7
                (=> a!3
                    (and (= src_reg_2_75 src_reg_2_118)
                         (= src_reg_2_76 src_reg_2_119)
                         (= src_reg_2_77 src_reg_2_120)
                         (= src_reg_2_78 src_reg_2_121)
                         (= src_reg_2_79 src_reg_2_122)
                         (= src_reg_2_80 src_reg_2_123)
                         (= src_reg_2_81 src_reg_2_124)
                         (= src_reg_2_82 src_reg_2_125)
                         (= src_reg_2_83 src_reg_2_126)
                         (= src_reg_2_84 src_reg_2_127)
                         (= dst_reg_2_65 dst_reg_2_108)
                         (= dst_reg_2_66 dst_reg_2_109)
                         (= dst_reg_2_67 dst_reg_2_110)
                         (= dst_reg_2_68 dst_reg_2_111)
                         (= dst_reg_2_69 dst_reg_2_112)
                         (= dst_reg_2_70 dst_reg_2_113)
                         (= dst_reg_2_71 dst_reg_2_114)
                         (= dst_reg_2_72 dst_reg_2_115)
                         (= dst_reg_2_73 dst_reg_2_116)
                         (= dst_reg_2_74 dst_reg_2_117)))
                (=> a!2
                    (and (= src_reg_2_75 src_reg_2_118)
                         (= src_reg_2_76 src_reg_2_119)
                         (= src_reg_2_77 src_reg_2_120)
                         (= src_reg_2_78 src_reg_2_121)
                         (= src_reg_2_79 src_reg_2_122)
                         (= src_reg_2_80 src_reg_2_123)
                         (= src_reg_2_81 src_reg_2_124)
                         (= src_reg_2_82 src_reg_2_125)
                         (= src_reg_2_83 src_reg_2_126)
                         (= src_reg_2_84 src_reg_2_127)
                         (= dst_reg_2_65 dst_reg_2_108)
                         (= dst_reg_2_66 dst_reg_2_109)
                         (= dst_reg_2_67 dst_reg_2_110)
                         (= dst_reg_2_68 dst_reg_2_111)
                         (= dst_reg_2_69 dst_reg_2_112)
                         (= cond53.i.i_2_107 dst_reg_2_113)
                         (= i28.i.i_2_98 dst_reg_2_114)
                         (= cond53.i.i_2_107 dst_reg_2_115)
                         (= dst_reg_2_73 dst_reg_2_116)
                         (= dst_reg_2_74 dst_reg_2_117)))))
      (a!11 (=> a!2
                (and (ite (bvugt i.i245.i_2_85 i29.i.i_2_101)
                          (= cmp48.i.i_2_106 #b1)
                          (= cmp48.i.i_2_106 #b0))
                     (ite (= cmp48.i.i_2_106 #b1)
                          (= cond53.i.i_2_107 i.i245.i_2_85)
                          (= cond53.i.i_2_107 i29.i.i_2_101)))))
      (a!15 (=> a!4
                (and (= dst_reg_2_72 i25.i.i_2_91)
                     (ite (bvugt i.i245.i_2_85 i25.i.i_2_91)
                          (= cmp4.i.i_2_92 #b1)
                          (= cmp4.i.i_2_92 #b0))
                     (ite (= cmp4.i.i_2_92 #b1)
                          (= cond.i250.i_2_93 i.i245.i_2_85)
                          (= cond.i250.i_2_93 i25.i.i_2_91))
                     (= dst_reg_2_71 i26.i.i_2_94)
                     (= dst_reg_2_73 i27.i.i_2_95)
                     (ite (bvult i26.i.i_2_94 i27.i.i_2_95)
                          (= cmp12.i.i_2_96 #b1)
                          (= cmp12.i.i_2_96 #b0))
                     (ite (= cmp12.i.i_2_96 #b1)
                          (= cond17.i.i_2_97 i26.i.i_2_94)
                          (= cond17.i.i_2_97 i27.i.i_2_95))))))
(let ((a!6 (=> (and (= cmp.i.i.i.i_2_132 #b0) a!5)
               (and (ite (bvult xor.i.i.i_2_130 #x0000000100000000)
                         (= tobool.not.i.i.i.i.i_2_134 #b1)
                         (= tobool.not.i.i.i.i.i_2_134 #b0))
                    (= shl.i.i.i.i.i_2_136
                       (bvshl xor.i.i.i_2_130 #x0000000000000020))
                    (ite (= tobool.not.i.i.i.i.i_2_134 #b1)
                         (= spec.select.i.i.i.i.i_2_137 shl.i.i.i.i.i_2_136)
                         (= spec.select.i.i.i.i.i_2_137 xor.i.i.i_2_130))
                    (ite (= tobool.not.i.i.i.i.i_2_134 #b1)
                         (= spec.select17.i.i.i.i.i_2_140 #x0000001f)
                         (= spec.select17.i.i.i.i.i_2_140 #x0000003f))
                    (ite (bvult spec.select.i.i.i.i.i_2_137 #x0001000000000000)
                         (= tobool2.not.i.i.i.i.i_2_142 #b1)
                         (= tobool2.not.i.i.i.i.i_2_142 #b0))
                    (= sub4.i.i.i.i.i_2_144
                       (bvadd spec.select17.i.i.i.i.i_2_140 #xfffffff0))
                    (= shl5.i.i.i.i.i_2_146
                       (bvshl spec.select.i.i.i.i.i_2_137 #x0000000000000010))
                    (ite (= tobool2.not.i.i.i.i.i_2_142 #b1)
                         (= word.addr.1.i.i.i.i.i_2_147 shl5.i.i.i.i.i_2_146)
                         (= word.addr.1.i.i.i.i.i_2_147
                            spec.select.i.i.i.i.i_2_137))
                    (ite (= tobool2.not.i.i.i.i.i_2_142 #b1)
                         (= num.1.i.i.i.i.i_2_148 sub4.i.i.i.i.i_2_144)
                         (= num.1.i.i.i.i.i_2_148 spec.select17.i.i.i.i.i_2_140))
                    (ite (bvult word.addr.1.i.i.i.i.i_2_147 #x0100000000000000)
                         (= tobool8.not.i.i.i.i.i_2_150 #b1)
                         (= tobool8.not.i.i.i.i.i_2_150 #b0))
                    (= sub10.i.i.i.i.i_2_152
                       (bvadd num.1.i.i.i.i.i_2_148 #xfffffff8))
                    (= shl11.i.i.i.i.i_2_154
                       (bvshl word.addr.1.i.i.i.i.i_2_147 #x0000000000000008))
                    (ite (= tobool8.not.i.i.i.i.i_2_150 #b1)
                         (= word.addr.2.i.i.i.i.i_2_155 shl11.i.i.i.i.i_2_154)
                         (= word.addr.2.i.i.i.i.i_2_155
                            word.addr.1.i.i.i.i.i_2_147))
                    (ite (= tobool8.not.i.i.i.i.i_2_150 #b1)
                         (= num.2.i.i.i.i.i_2_156 sub10.i.i.i.i.i_2_152)
                         (= num.2.i.i.i.i.i_2_156 num.1.i.i.i.i.i_2_148))
                    (ite (bvult word.addr.2.i.i.i.i.i_2_155 #x1000000000000000)
                         (= tobool14.not.i.i.i.i.i_2_158 #b1)
                         (= tobool14.not.i.i.i.i.i_2_158 #b0))
                    (= sub16.i.i.i.i.i_2_160
                       (bvadd num.2.i.i.i.i.i_2_156 #xfffffffc))
                    (= shl17.i.i.i.i.i_2_162
                       (bvshl word.addr.2.i.i.i.i.i_2_155 #x0000000000000004))
                    (ite (= tobool14.not.i.i.i.i.i_2_158 #b1)
                         (= word.addr.3.i.i.i.i.i_2_163 shl17.i.i.i.i.i_2_162)
                         (= word.addr.3.i.i.i.i.i_2_163
                            word.addr.2.i.i.i.i.i_2_155))
                    (ite (= tobool14.not.i.i.i.i.i_2_158 #b1)
                         (= num.3.i.i.i.i.i_2_164 sub16.i.i.i.i.i_2_160)
                         (= num.3.i.i.i.i.i_2_164 num.2.i.i.i.i.i_2_156))
                    (ite (bvult word.addr.3.i.i.i.i.i_2_163 #x4000000000000000)
                         (= tobool20.not.i.i.i.i.i_2_166 #b1)
                         (= tobool20.not.i.i.i.i.i_2_166 #b0))
                    (= sub22.i.i.i.i.i_2_168
                       (bvadd num.3.i.i.i.i.i_2_164 #x000000fe))
                    (= shl23.i.i.i.i.i_2_170
                       (bvshl word.addr.3.i.i.i.i.i_2_163 #x0000000000000002))
                    (ite (= tobool20.not.i.i.i.i.i_2_166 #b1)
                         (= word.addr.4.i.i.i.i.i_2_171 shl23.i.i.i.i.i_2_170)
                         (= word.addr.4.i.i.i.i.i_2_171
                            word.addr.3.i.i.i.i.i_2_163))
                    (ite (= tobool20.not.i.i.i.i.i_2_166 #b1)
                         (= num.4.i.i.i.i.i_2_172 sub22.i.i.i.i.i_2_168)
                         (= num.4.i.i.i.i.i_2_172 num.3.i.i.i.i.i_2_164))
                    (= word.addr.4.lobit.i.i.i.i.i.neg_2_174
                       (bvlshr word.addr.4.i.i.i.i.i_2_171 #x000000000000003f))
                    (= i.i.i.i.i.i.neg_2_175
                       ((_ extract 31 0) word.addr.4.lobit.i.i.i.i.i.neg_2_174))
                    (= conv.i.i.i.i_2_176
                       (bvadd num.4.i.i.i.i.i_2_172 i.i.i.i.i.i.neg_2_175))
                    (= phi.bo_2_178 (bvand conv.i.i.i.i_2_176 #x000000ff)))))
      (a!9 (and (ite (bvugt retval.0.i.i.i.i_2_179 #x0000003f)
                     (= cmp.i.i.i_2_181 #b1)
                     (= cmp.i.i.i_2_181 #b0))
                (= sh_prom.i.i.i_2_182
                   ((_ zero_extend 32) retval.0.i.i.i.i_2_179))
                (= notmask.i.i.i_2_184
                   (bvshl #xffffffffffffffff sh_prom.i.i.i_2_182))
                (= sub.i.i.i_2_186
                   (bvxor notmask.i.i.i_2_184 #xffffffffffffffff))
                (= and.i.i256.i_2_187
                   (bvand notmask.i.i.i_2_184 i.i253.i_2_128))
                (ite (= cmp.i.i.i_2_181 #b1)
                     (= retval.sroa.0.0.i.i.i_2_189 #x0000000000000000)
                     (= retval.sroa.0.0.i.i.i_2_189 and.i.i256.i_2_187))
                (ite (= cmp.i.i.i_2_181 #b1)
                     (= retval.sroa.3.0.i.i.i_2_191 #xffffffffffffffff)
                     (= retval.sroa.3.0.i.i.i_2_191 sub.i.i.i_2_186))
                (= dst_reg_2_68 i9.i.i_2_192)
                (= dst_reg_2_69 i11.i.i_2_193)
                (= or.i.i259.i_2_194
                   (bvor retval.sroa.0.0.i.i.i_2_189 i9.i.i_2_192))
                (= and.i1.i260.i_2_195
                   (bvand retval.sroa.3.0.i.i.i_2_191 i11.i.i_2_193))
                (= neg.i.i.i_2_197
                   (bvxor and.i1.i260.i_2_195 #xffffffffffffffff))
                (= and4.i.i.i_2_198 (bvand or.i.i259.i_2_194 neg.i.i.i_2_197))
                (=> (and (= cmp.i.i.i.i_2_132 #b0) a!5)
                    (= retval.0.i.i.i.i_2_179 phi.bo_2_178))
                (=> (and (= cmp.i.i.i.i_2_132 #b1) a!5)
                    (= retval.0.i.i.i.i_2_179 #x00000000))
                (= dst_reg_2_108 dst_reg_2_200)
                (= dst_reg_2_109 dst_reg_2_201)
                (= dst_reg_2_110 dst_reg_2_202)
                (= and4.i.i.i_2_198 dst_reg_2_203)
                (= and.i1.i260.i_2_195 dst_reg_2_204)
                (= dst_reg_2_113 dst_reg_2_205)
                (= dst_reg_2_114 dst_reg_2_206)
                (= dst_reg_2_115 dst_reg_2_207)
                (= dst_reg_2_116 dst_reg_2_208)
                (= dst_reg_2_117 dst_reg_2_209)
                (= src_reg_2_118 src_reg_2_210)
                (= src_reg_2_119 src_reg_2_211)
                (= src_reg_2_120 src_reg_2_212)
                (= src_reg_2_121 src_reg_2_213)
                (= src_reg_2_122 src_reg_2_214)
                (= src_reg_2_123 src_reg_2_215)
                (= src_reg_2_124 src_reg_2_216)
                (= src_reg_2_125 src_reg_2_217)
                (= src_reg_2_126 src_reg_2_218)
                (= src_reg_2_127 src_reg_2_219))))
(let ((a!10 (=> (or (and (= cmp.i.i.i.i_2_132 #b0) a!5)
                    (and (= cmp.i.i.i.i_2_132 #b1) a!5))
                a!9)))
  (and a!6
       (=> a!5 a!8)
       a!10
       a!11
       a!12
       a!13
       a!14
       a!15
       (=> (or (= i19_2_28 #b0) (= i19_2_28 #b1)) a!16)
       a!17
       a!18
       a!19
       (= dst_reg_2_0 dst_reg_2_0)
       (= dst_reg_2_1 dst_reg_2_1)
       (= dst_reg_2_2 dst_reg_2_2)
       (= dst_reg_2_3 dst_reg_2_3)
       (= dst_reg_2_4 dst_reg_2_4)
       (= dst_reg_2_5 dst_reg_2_5)
       (= dst_reg_2_6 dst_reg_2_6)
       (= dst_reg_2_7 dst_reg_2_7)
       (= dst_reg_2_8 dst_reg_2_8)
       (= dst_reg_2_9 dst_reg_2_9)
       (= src_reg_2_10 src_reg_2_10)
       (= src_reg_2_11 src_reg_2_11)
       (= src_reg_2_12 src_reg_2_12)
       (= src_reg_2_13 src_reg_2_13)
       (= src_reg_2_14 src_reg_2_14)
       (= src_reg_2_15 src_reg_2_15)
       (= src_reg_2_16 src_reg_2_16)
       (= src_reg_2_17 src_reg_2_17)
       (= src_reg_2_18 src_reg_2_18)
       (= src_reg_2_19 src_reg_2_19)
       (= src_reg_2_13 src_reg1.sroa.3.0.copyload_2_22)
       (= src_reg_2_14 src_reg1.sroa.11.0.copyload_2_23)
       (= src_reg_2_17 src_reg1.sroa.21.0.copyload_2_24)
       (= dst_reg_2_4 i20.i_2_25)
       (= i_2_26 (bvor i20.i_2_25 src_reg1.sroa.11.0.copyload_2_23))
       (ite (= i_2_26 #x0000000000000000) (= i19_2_28 #b1) (= i19_2_28 #b0))
       (= dst_reg_2_3 i54.i_2_29))))))))

;{"dst_reg":["dst_reg_2_0",[""],"dst_reg_2_1","dst_reg_2_2",["dst_reg_2_3","dst_reg_2_4"],"dst_reg_2_5","dst_reg_2_6","dst_reg_2_7","dst_reg_2_8","dst_reg_2_9"],"src_reg":["src_reg_2_10",[""],"src_reg_2_11","src_reg_2_12",["src_reg_2_13","src_reg_2_14"],"src_reg_2_15","src_reg_2_16","src_reg_2_17","src_reg_2_18","src_reg_2_19"]}
;{"dst_reg":["dst_reg_2_200",[""],"dst_reg_2_201","dst_reg_2_202",["dst_reg_2_203","dst_reg_2_204"],"dst_reg_2_205","dst_reg_2_206","dst_reg_2_207","dst_reg_2_208","dst_reg_2_209"],"src_reg":["src_reg_2_210",[""],"src_reg_2_211","src_reg_2_212",["src_reg_2_213","src_reg_2_214"],"src_reg_2_215","src_reg_2_216","src_reg_2_217","src_reg_2_218","src_reg_2_219"]}
